check/benchmarks/mps_files/simple.mps
NAME          EXAMPLE

OBJSENSE
 MAX
 
ROWS
 N  COST
 L  C1
 L  C2
 L  C3
COLUMNS
    x1        COST       3
    x1        C1         1
    x1        C2         1
    x2        COST       2
    x2        C1         1
    x2        C3         1
RHS
    RHS       C1         4
    RHS       C2         2
    RHS       C3         3
ENDATA
